20 28
0 4 44
0 6 75
0 10 20
0 13 72
0 15 7
1 2 97
1 4 6
1 7 23
1 10 69
1 18 27
2 3 99
2 11 55
2 15 55
3 5 30
3 9 90
3 13 51
4 5 85
4 8 61
5 17 29
5 19 18
6 7 42
6 8 57
7 14 23
8 9 22
9 14 50
10 12 69
11 12 71
11 16 54
